(set-logic QF_LRA)
(declare-fun X0 () Real )
(declare-fun Y0 () Real )
(declare-fun X1 () Real )
(declare-fun Y1 () Real )
(declare-fun X2 () Real )
(declare-fun Y2 () Real )
(declare-fun X3 () Real )
(declare-fun Y3 () Real )
(declare-fun X4 () Real )
(declare-fun Y4 () Real )
(declare-fun X5 () Real )
(declare-fun Y5 () Real )
(declare-fun Z () Real )
(declare-fun k () Real )
(assert (let
(( $goal (>= Z k) ))
(let
((
$phi ( and 
( or ( <= ( + X0 15 ) X1 )  ( <= ( + X1 59 ) X0 )  ( <= ( + Y0 98 ) Y1 )  ( <= ( + Y1 64 ) Y0 )  )
( or ( <= ( + X0 15 ) X2 )  ( <= ( + X2 4 ) X0 )  ( <= ( + Y0 98 ) Y2 )  ( <= ( + Y2 91 ) Y0 )  )
( or ( <= ( + X0 15 ) X3 )  ( <= ( + X3 23 ) X0 )  ( <= ( + Y0 98 ) Y3 )  ( <= ( + Y3 11 ) Y0 )  )
( or ( <= ( + X0 15 ) X4 )  ( <= ( + X4 25 ) X0 )  ( <= ( + Y0 98 ) Y4 )  ( <= ( + Y4 55 ) Y0 )  )
( or ( <= ( + X0 15 ) X5 )  ( <= ( + X5 78 ) X0 )  ( <= ( + Y0 98 ) Y5 )  ( <= ( + Y5 39 ) Y0 )  )
( or ( <= ( + X1 59 ) X2 )  ( <= ( + X2 4 ) X1 )  ( <= ( + Y1 64 ) Y2 )  ( <= ( + Y2 91 ) Y1 )  )
( or ( <= ( + X1 59 ) X3 )  ( <= ( + X3 23 ) X1 )  ( <= ( + Y1 64 ) Y3 )  ( <= ( + Y3 11 ) Y1 )  )
( or ( <= ( + X1 59 ) X4 )  ( <= ( + X4 25 ) X1 )  ( <= ( + Y1 64 ) Y4 )  ( <= ( + Y4 55 ) Y1 )  )
( or ( <= ( + X1 59 ) X5 )  ( <= ( + X5 78 ) X1 )  ( <= ( + Y1 64 ) Y5 )  ( <= ( + Y5 39 ) Y1 )  )
( or ( <= ( + X2 4 ) X3 )  ( <= ( + X3 23 ) X2 )  ( <= ( + Y2 91 ) Y3 )  ( <= ( + Y3 11 ) Y2 )  )
( or ( <= ( + X2 4 ) X4 )  ( <= ( + X4 25 ) X2 )  ( <= ( + Y2 91 ) Y4 )  ( <= ( + Y4 55 ) Y2 )  )
( or ( <= ( + X2 4 ) X5 )  ( <= ( + X5 78 ) X2 )  ( <= ( + Y2 91 ) Y5 )  ( <= ( + Y5 39 ) Y2 )  )
( or ( <= ( + X3 23 ) X4 )  ( <= ( + X4 25 ) X3 )  ( <= ( + Y3 11 ) Y4 )  ( <= ( + Y4 55 ) Y3 )  )
( or ( <= ( + X3 23 ) X5 )  ( <= ( + X5 78 ) X3 )  ( <= ( + Y3 11 ) Y5 )  ( <= ( + Y5 39 ) Y3 )  )
( or ( <= ( + X4 25 ) X5 )  ( <= ( + X5 78 ) X4 )  ( <= ( + Y4 55 ) Y5 )  ( <= ( + Y5 39 ) Y4 )  )
( >= X0 0)
( <= ( + X0 15) Z)
( >= Y0 0)
( <= ( + Y0 98 ) 100)
( >= X1 0)
( <= ( + X1 59) Z)
( >= Y1 0)
( <= ( + Y1 64 ) 100)
( >= X2 0)
( <= ( + X2 4) Z)
( >= Y2 0)
( <= ( + Y2 91 ) 100)
( >= X3 0)
( <= ( + X3 23) Z)
( >= Y3 0)
( <= ( + Y3 11 ) 100)
( >= X4 0)
( <= ( + X4 25) Z)
( >= Y4 0)
( <= ( + Y4 55 ) 100)
( >= X5 0)
( <= ( + X5 78) Z)
( >= Y5 0)
( <= ( + Y5 39 ) 100)
) )
)(=> $phi $goal))))